
###########################################################################
#
#                 Cambridge Crystallographic Data Centre
#                                CCDC 
# 
###########################################################################
#
#  This CIF contains data generated directly from one or more entries in
#  the Cambridge Structural Database and will include bibliographic, 
#  chemical, crystal, experimental, refinement, and atomic coordinate data,
#  as available.
#     
#  Copyright  2008  The Cambridge Crystallographic Data Centre
# 
#  This CIF is provided on the understanding that it is used for bona fide 
#  research purposes only.  It may contain copyright material of the CCDC
#  or of third parties, and may not be copied or further disseminated in 
#  any form, whether machine-readable or not, except for the purpose of 
#  generating routine backup copies on your local computer system.
# 
#  For further information about the CCDC, data deposition and data 
#  retrieval see <www.ccdc.cam.ac.uk>. Bona fide researchers may freely 
#  download  Mercury and enCIFer from this site to visualise CIF-encoded 
#  structures and to carry out CIF format checking respectively.
#
###########################################################################

data_CSD_CIF_BENZEN11
_audit_creation_date 2006-03-08
_audit_creation_method CSD-ConQuest-V1
_database_code_CSD BENZEN11
_database_code_depnum_ccdc_archive 'CCDC 298305'
_chemical_formula_sum 'C6 H6'
_chemical_formula_moiety
;
C6 H6
;
_journal_coeditor_code "IUCr AV5045"
_journal_coden_Cambridge 622
_journal_volume 62
_journal_year 2006
_journal_page_first 94
_journal_name_full 'Acta Crystallogr.,Sect.B:Struct.Sci. '
loop_
_publ_author_name
"A.Budzianowski"
"A.Katrusiak"
_chemical_name_systematic
;
Benzene
;
_cell_volume    448.366
_exptl_crystal_colour 'colorless'
_exptl_crystal_density_diffrn 1.157
_exptl_special_details
;
orthorhombic polymorph I

;
_diffrn_ambient_temperature 296
_diffrn_ambient_pressure 700000.0
#These two values have been output from a single CSD field.
_refine_ls_R_factor_gt 0.053
_refine_ls_wR_factor_gt 0.053
_symmetry_cell_setting orthorhombic
_symmetry_space_group_name_H-M 'P b c a'
_symmetry_Int_Tables_number 61
loop_
_symmetry_equiv_pos_site_id
_symmetry_equiv_pos_as_xyz
1 x,y,z
2 1/2-x,-y,1/2+z
3 -x,1/2+y,1/2-z
4 1/2+x,1/2-y,-z
5 -x,-y,-z
6 -1/2+x,y,-1/2-z
7 x,-1/2-y,-1/2+z
8 -1/2-x,-1/2+y,z
_cell_length_a 7.287(6)
_cell_length_b 9.20(2)
_cell_length_c 6.688(9)
_cell_angle_alpha 90
_cell_angle_beta 90
_cell_angle_gamma 90
_cell_formula_units_Z 4
loop_
_atom_type_symbol
_atom_type_radius_bond
C 0.68
H 0.23
loop_
_atom_site_label
_atom_site_type_symbol
_atom_site_fract_x
_atom_site_fract_y
_atom_site_fract_z
C1 C -0.0537(8) 0.1425(9) 0.0097(12)
H1 H -0.085(6) 0.246(7) 0.034(8)
C2 C 0.0840(7) 0.0924(10) 0.1373(10)
H2 H 0.140(6) 0.156(6) 0.219(8)
C3 C -0.1343(7) 0.0521(9) -0.1235(12)
H3 H -0.220(6) 0.080(6) -0.204(9)
C1D C 0.0537(8) -0.1425(9) -0.0097(12)
H1D H 0.085(6) -0.246(7) -0.034(8)
C2D C -0.0840(7) -0.0924(10) -0.1373(10)
H2D H -0.140(6) -0.156(6) -0.219(8)
C3D C 0.1343(7) -0.0521(9) 0.1235(12)
H3D H 0.220(6) -0.080(6) 0.204(9)
#END
